c Random 3-CNF over 30 variables and 135 clauses
c Generated with `cnfgen`
c (C) 2012-2018 Massimo Lauria <lauria.massimo@gmail.com>
c https://massimolauria.github.io/cnfgen
c
c COMMAND LINE: cnfgen -o ./input/input890F96DC-908F-4871-AEE4-7B37CD168721.cnf randkcnf 3 30 135
c
p cnf 30 135
7 -10 -21 0
-2 18 -30 0
-3 17 -25 0
-2 3 4 0
2 -5 13 0
-11 25 -26 0
-8 -12 25 0
-10 -18 -25 0
-2 12 21 0
8 -12 16 0
5 8 10 0
-4 -9 -19 0
-2 10 28 0
17 18 19 0
-9 11 24 0
3 -5 30 0
-21 25 -26 0
15 -18 24 0
-3 -7 26 0
4 -10 26 0
4 -20 -25 0
1 -15 18 0
3 -16 -24 0
10 -17 19 0
9 24 -28 0
9 13 30 0
2 16 21 0
-5 13 15 0
-5 -6 -11 0
-8 10 -24 0
-2 3 23 0
-4 10 11 0
4 14 -18 0
1 22 24 0
-4 -15 -18 0
-1 6 24 0
7 -16 20 0
15 -20 27 0
3 -26 30 0
3 -13 16 0
7 -9 30 0
-2 -20 27 0
2 -23 28 0
-13 -19 21 0
-1 -10 -17 0
-14 -25 26 0
-16 -24 -29 0
6 17 29 0
-3 10 -28 0
-14 -16 -20 0
8 -9 -30 0
-10 11 19 0
-2 -3 29 0
-6 -22 29 0
-7 -18 24 0
-8 11 26 0
-8 -23 30 0
-2 3 14 0
4 -21 29 0
-14 -21 26 0